<number of tasks>
50

<cycle time>
1000

<order strength>
0.199


<task times>
1 61
2 64
3 188
4 139
5 236
6 39
7 105
8 83
9 174
10 111
11 193
12 252
13 134
14 266
15 90
16 258
17 152
18 214
19 115
20 137
21 171
22 128
23 163
24 277
25 138
26 184
27 126
28 88
29 171
30 339
31 138
32 30
33 131
34 237
35 49
36 197
37 61
38 158
39 116
40 167
41 173
42 42
43 38
44 214
45 234
46 79
47 174
48 80
49 179
50 35

<precedence relations>
1,13
2,12
4,11
4,27
4,42
5,10
6,9
7,14
9,15
9,16
9,19
10,20
10,31
12,18
14,17
15,24
15,25
16,23
18,22
19,21
20,26
21,31
21,33
21,36
22,29
23,32
25,28
26,27
26,30
28,34
29,42
30,37
31,35
31,38
31,40
32,36
32,39
32,49
34,43
36,42
37,49
40,41
42,44
42,45
42,46
42,47
42,48
42,50
43,49

<end>
